qbf_easy_train/easy_1086_SAT.qdimacs
p cnf 20 45
a 10 4 7 0
e 1 2 3 5 6 8 9 11 12 13 14 15 16 17 18 19 20 0
-4 2 0
-4 -3 0
-2 3 4 0
1 4 -5 0
-1 -4 -5 0
1 -4 5 0
-1 4 5 0
8 -6 0
8 -7 0
6 7 -8 0
-9 -1 0
-9 -8 0
1 8 9 0
11 -9 0
11 10 0
9 -10 -11 0
-5 -11 -12 0
5 11 -12 0
-5 11 12 0
5 -11 12 0
14 -3 0
14 -13 0
3 13 -14 0
15 -9 -16 0
-15 9 -16 0
15 9 16 0
-15 -9 16 0
17 14 0
17 16 0
-14 -16 -17 0
-12 17 -18 0
12 -17 -18 0
-12 -17 18 0
12 17 18 0
-19 -4 0
-19 -2 0
4 2 19 0
-20 18 0
-20 -19 0
-18 19 20 0
-4 -14 7 8 10 -3 -15 0
-15 8 14 0
-17 8 -13 0
13 19 -9 14 0
20 0
