sat_easy_train/easy_1086_SAT.dimacs
p cnf 105 346
-2 3 -4 0
2 -3 -4 0
-2 -3 4 0
2 3 4 0
-1 -4 -5 0
1 4 -5 0
-1 4 5 0
1 -4 5 0
7 5 0
7 -6 0
-5 6 -7 0
10 -8 0
10 -9 0
8 9 -10 0
-4 10 -11 0
4 -10 -11 0
-4 -10 11 0
4 10 11 0
1 -11 -12 0
-1 11 -12 0
1 11 12 0
-1 -11 12 0
12 4 -13 0
-12 -4 -13 0
12 -4 13 0
-12 4 13 0
16 -14 0
16 -15 0
14 15 -16 0
17 -14 0
17 3 0
14 -3 -17 0
-17 6 -18 0
17 -6 -18 0
-17 -6 18 0
17 6 18 0
19 16 0
19 -18 0
-16 18 -19 0
20 -16 0
20 -19 0
16 19 -20 0
13 -20 -21 0
-13 20 -21 0
13 20 21 0
-13 -20 21 0
-22 7 0
-22 -21 0
-7 21 22 0
24 8 0
24 23 0
-8 -23 -24 0
25 6 0
25 1 0
-6 -1 -25 0
-14 25 -26 0
14 -25 -26 0
-14 -25 26 0
14 25 26 0
24 -26 -27 0
-24 26 -27 0
24 26 27 0
-24 -26 27 0
-20 28 -29 0
20 -28 -29 0
-20 -28 29 0
20 28 29 0
6 8 -30 0
-6 -8 -30 0
6 -8 30 0
-6 8 30 0
-30 4 -31 0
30 -4 -31 0
-30 -4 31 0
30 4 31 0
-33 31 0
-33 32 0
-31 -32 33 0
-34 -1 -35 0
34 1 -35 0
-34 1 35 0
34 -1 35 0
35 -16 -36 0
-35 16 -36 0
35 16 36 0
-35 -16 36 0
-37 -6 0
-37 2 0
6 -2 37 0
-38 -36 0
-38 -37 0
36 37 38 0
-33 -38 -39 0
33 38 -39 0
-33 38 39 0
33 -38 39 0
-29 -39 -40 0
29 39 -40 0
-29 39 40 0
29 -39 40 0
-41 -15 0
-41 28 0
15 -28 41 0
42 -9 0
42 25 0
9 -25 -42 0
43 41 0
43 42 0
-41 -42 -43 0
44 -40 0
44 -43 0
40 43 -44 0
-45 27 0
-45 44 0
-27 -44 45 0
46 4 0
46 12 0
-4 -12 -46 0
-15 -12 -48 0
15 12 -48 0
-15 12 48 0
15 -12 48 0
49 -3 0
49 -1 0
3 1 -49 0
49 17 -50 0
-49 -17 -50 0
49 -17 50 0
-49 17 50 0
-51 48 0
-51 50 0
-48 -50 51 0
-47 -51 -52 0
47 51 -52 0
-47 51 52 0
47 -51 52 0
-53 46 0
-53 52 0
-46 -52 53 0
55 -54 0
55 -14 0
54 14 -55 0
-56 53 0
-56 55 0
-53 -55 56 0
57 48 0
57 -49 0
-48 49 -57 0
30 57 -58 0
-30 -57 -58 0
30 -57 58 0
-30 57 58 0
59 -4 -60 0
-59 4 -60 0
59 4 60 0
-59 -4 60 0
-54 -34 -61 0
54 34 -61 0
-54 34 61 0
54 -34 61 0
62 19 0
62 -61 0
-19 61 -62 0
63 -60 0
63 -62 0
60 62 -63 0
37 54 -64 0
-37 -54 -64 0
37 -54 64 0
-37 54 64 0
-65 64 0
-65 59 0
-64 -59 65 0
63 -65 -66 0
-63 65 -66 0
63 65 66 0
-63 -65 66 0
-67 48 0
-67 -10 0
-48 10 67 0
-68 28 0
-68 -67 0
-28 67 68 0
-69 -64 0
-69 -37 0
64 37 69 0
70 -32 0
70 -25 0
32 25 -70 0
-69 -70 -71 0
69 70 -71 0
-69 70 71 0
69 -70 71 0
72 -68 0
72 71 0
68 -71 -72 0
-73 66 0
-73 72 0
-66 -72 73 0
-74 -2 0
-74 28 0
2 -28 74 0
75 3 0
75 34 0
-3 -34 -75 0
-76 -75 0
-76 -36 0
75 36 76 0
-76 -37 -77 0
76 37 -77 0
-76 37 77 0
76 -37 77 0
-78 -37 0
-78 -77 0
37 77 78 0
-74 -78 -79 0
74 78 -79 0
-74 78 79 0
74 -78 79 0
80 6 0
80 -11 0
-6 11 -80 0
-81 2 0
-81 -6 0
-2 6 81 0
-82 -81 0
-82 6 0
81 -6 82 0
-84 -83 0
-84 -8 0
83 8 84 0
-85 82 0
-85 -84 0
-82 84 85 0
86 -80 0
86 -85 0
80 85 -86 0
-87 -79 0
-87 -86 0
79 86 87 0
88 -73 0
88 87 0
73 -87 -88 0
19 -17 -89 0
-19 17 -89 0
19 17 89 0
-19 -17 89 0
-90 -35 0
-90 89 0
35 -89 90 0
91 90 0
91 -13 0
-90 13 -91 0
-67 5 -92 0
67 -5 -92 0
-67 -5 92 0
67 5 92 0
-92 -59 -93 0
92 59 -93 0
-92 59 93 0
92 -59 93 0
-91 93 -94 0
91 -93 -94 0
-91 -93 94 0
91 93 94 0
-95 -13 0
-95 48 0
13 -48 95 0
-95 50 -96 0
95 -50 -96 0
-95 -50 96 0
95 50 96 0
-97 -96 0
-97 19 0
96 -19 97 0
-98 -4 0
-98 -14 0
4 14 98 0
-99 -97 0
-99 -98 0
97 98 99 0
-100 94 0
-100 -99 0
-94 99 100 0
-88 100 -101 0
88 -100 -101 0
-88 -100 101 0
88 100 101 0
102 58 0
102 -101 0
-58 101 -102 0
-103 56 0
-103 -102 0
-56 102 103 0
104 45 0
104 103 0
-45 -103 -104 0
105 22 0
105 104 0
-22 -104 -105 0
-82 -101 0
79 85 -16 -47 -18 13 0
-43 -86 0
38 -23 81 53 0
-81 28 38 0
26 35 8 0
63 20 100 0
-34 83 -27 -67 0
-102 -21 -50 74 0
91 70 -22 102 0
-17 48 22 50 34 0
-33 -61 -76 0
-34 -49 -91 26 -35 0
-61 94 20 -56 43 13 0
-86 12 64 0
26 -24 -41 -14 -3 48 0
102 2 -89 -31 57 -3 0
-99 9 40 17 105 -27 0
99 -35 97 100 -55 -44 0
-80 76 -39 36 0
50 -64 91 60 27 0
72 98 -52 0
103 -16 14 97 -94 -62 0
-63 87 -68 0
45 -84 104 0
-105 -61 -71 30 69 0
-13 -1 -69 -22 58 33 0
15 -93 46 65 21 0
34 66 105 4 0
-105 -84 60 0
41 -31 -35 -50 0
-6 -26 -43 68 -39 0
-23 56 0
-9 -38 49 71 35 73 0
28 7 0
75 -58 6 44 100 -68 0
54 -73 -20 -31 0
-74 67 -92 -2 57 0
11 82 0
-71 83 0
25 77 0
44 -36 29 35 0
-60 -57 -61 -104 -3 0
65 61 0
-97 36 58 0
105 0
